language ESSENCE' 1.0

letting jobs = 102
letting horizon = 829
letting resourcesRenew = 2
letting resourcesNonrenew = 2
letting resourceLimits = [26, 27, 519, 527]
letting successors = [[2, 3, 4, 5, 6, 7, 8, 10], [30, 18, 16, 15, 14, 9], [30, 25, 22, 20, 15, 13, 9], [25, 22, 20, 15, 9], [22, 18, 16, 14, 11], [22, 20, 16, 14, 11], [13, 12, 9], [36, 33, 26, 25, 24, 15], [36, 33, 29, 26, 24, 19, 17], [33, 26, 25, 24, 19, 17], [36, 33, 31, 29, 28, 26, 24, 23], [36, 31, 29, 28, 25, 20], [36, 33, 28, 24, 19], [33, 28, 26, 21], [29, 28, 19], [29, 27, 25, 24], [39, 38, 32, 31, 28, 27], [39, 38, 32, 31, 28, 26], [39, 32, 31, 23], [27, 26, 24], [38, 37, 35, 34, 31, 29], [45, 40, 38, 37, 35, 29], [45, 38, 37, 27], [43, 40, 39, 38, 37, 32], [45, 44, 43, 40, 35, 32], [45, 44, 42, 35, 34], [44, 43, 35, 34], [54, 48, 45, 44, 42, 41, 40, 37], [39, 32], [49, 47, 45, 33], [54, 52, 49, 48, 47, 46, 43, 40], [54, 50, 48, 47, 42, 41], [54, 50, 48, 44, 43, 41], [66, 54, 52, 49, 46, 40], [54, 48, 47, 41], [66, 58, 56, 51, 49, 44], [66, 56, 53, 52, 51, 50, 49], [58, 56, 55, 54, 49, 46], [58, 55, 51, 49, 44], [59, 58, 56, 53, 51, 50], [73, 66, 60, 56, 55, 53, 51], [52, 49, 46], [73, 66, 63, 62, 60, 58, 55, 51], [73, 60, 59, 53, 52], [63, 59, 56, 50], [75, 73, 63, 60, 59, 57, 51], [62, 60, 58, 57, 56, 51], [73, 63, 60, 51], [79, 75, 73, 71, 65, 62, 59, 57], [79, 73, 72, 71, 65, 64, 62, 60, 57], [80, 79, 74, 72, 69, 67, 65, 64, 61], [80, 79, 74, 72, 69, 67, 65, 64, 61], [77, 75, 72, 71, 69, 63, 62], [73, 71, 68, 64, 63], [92, 75, 71, 68, 59], [92, 76, 75, 74, 69, 65], [92, 83, 80, 77, 76, 69, 67], [92, 80, 76, 70, 67, 65], [83, 74, 72, 64], [83, 77, 76, 70, 69, 68], [100, 92, 86, 81, 78, 76, 71, 70], [101, 92, 86, 83, 76, 74, 68], [101, 100, 99, 92, 83, 81, 80, 78, 74], [101, 86, 81, 77, 76, 70], [86, 84, 83, 82, 68], [98, 85, 83, 82, 77], [100, 99, 98, 90, 85, 82, 81], [100, 99, 98, 88, 85, 81], [101, 99, 86, 84, 81], [99, 98, 91, 88, 85, 82], [98, 91, 88, 85, 83], [100, 99, 88, 82], [101, 99, 98, 96, 95, 91, 89, 88], [98, 90, 85, 82], [91, 88, 82], [98, 90, 87, 85], [91, 88, 84], [98, 85, 82], [84, 82], [97, 96, 89, 88, 87], [97, 96, 94, 91, 87], [97, 96, 89, 87], [96, 90, 89, 87], [96, 90, 89, 87], [97, 96, 95, 93, 89], [98, 97, 91], [95, 93], [90], [94], [94], [93], [93], [102], [102], [102], [102], [102], [102], [102], [102], [102], []]
letting durations = [[0], [1, 2, 10], [5, 7, 8], [1, 3, 9], [1, 3, 6], [7, 9, 10], [2, 6, 8], [2, 8, 10], [3, 4, 6], [6, 7, 8], [1, 5, 8], [5, 7, 8], [2, 9, 10], [2, 6, 7], [5, 6, 10], [1, 2, 9], [8, 9, 10], [1, 2, 4], [1, 4, 10], [1, 7, 8], [1, 3, 4], [2, 3, 7], [1, 2, 10], [5, 9, 10], [1, 5, 10], [5, 6, 7], [3, 5, 8], [6, 7, 8], [4, 7, 10], [4, 6, 8], [7, 8, 9], [1, 2, 4], [1, 2, 7], [2, 3, 8], [1, 7, 8], [1, 2, 3], [1, 5, 9], [5, 6, 10], [1, 3, 7], [1, 5, 7], [1, 6, 9], [3, 4, 6], [2, 4, 8], [2, 4, 10], [2, 3, 4], [2, 6, 9], [3, 9, 10], [6, 7, 8], [1, 7, 10], [3, 6, 8], [1, 8, 10], [4, 5, 8], [2, 3, 6], [8, 9, 10], [3, 9, 10], [4, 5, 6], [2, 4, 5], [4, 5, 6], [4, 7, 10], [7, 8, 10], [3, 5, 9], [2, 9, 10], [2, 4, 10], [1, 5, 10], [1, 2, 8], [1, 3, 10], [5, 6, 10], [5, 6, 8], [2, 6, 7], [1, 8, 10], [6, 7, 9], [5, 6, 8], [2, 3, 8], [1, 7, 9], [3, 9, 10], [3, 6, 7], [1, 3, 10], [5, 6, 10], [2, 3, 8], [5, 6, 7], [7, 8, 9], [2, 3, 9], [7, 8, 10], [5, 6, 9], [1, 2, 5], [1, 6, 10], [2, 3, 5], [1, 6, 8], [4, 7, 10], [4, 7, 9], [7, 8, 10], [3, 9, 10], [3, 8, 9], [3, 4, 6], [2, 6, 10], [1, 2, 5], [1, 2, 5], [5, 6, 10], [1, 7, 8], [6, 9, 10], [3, 4, 8], [0]]
letting resourceUsage = [[[0, 0, 0, 0]], [[5, 5, 7, 8], [5, 3, 7, 6], [5, 3, 4, 6]], [[4, 3, 10, 8], [4, 3, 9, 7], [4, 3, 8, 3]], [[2, 4, 6, 5], [1, 3, 6, 3], [1, 2, 6, 2]], [[5, 4, 9, 8], [3, 4, 8, 5], [3, 4, 8, 4]], [[5, 5, 10, 7], [5, 4, 9, 6], [5, 4, 9, 5]], [[3, 3, 7, 9], [3, 3, 5, 9], [1, 2, 3, 9]], [[4, 5, 6, 7], [4, 4, 3, 5], [3, 3, 2, 5]], [[2, 5, 5, 4], [2, 4, 5, 4], [2, 4, 5, 3]], [[3, 2, 7, 2], [2, 2, 5, 2], [2, 2, 5, 1]], [[2, 2, 4, 5], [1, 2, 4, 4], [1, 1, 3, 4]], [[4, 3, 5, 5], [3, 3, 4, 4], [2, 3, 3, 4]], [[4, 3, 6, 7], [3, 2, 5, 6], [3, 1, 2, 4]], [[3, 2, 8, 7], [3, 2, 5, 7], [3, 2, 4, 7]], [[4, 2, 5, 6], [4, 2, 2, 2], [4, 2, 1, 1]], [[5, 4, 4, 6], [4, 3, 3, 5], [4, 2, 2, 4]], [[4, 4, 10, 5], [4, 3, 7, 5], [3, 3, 3, 5]], [[1, 3, 4, 8], [1, 2, 4, 7], [1, 1, 4, 6]], [[3, 3, 8, 8], [3, 2, 6, 6], [3, 2, 4, 4]], [[3, 2, 6, 6], [3, 2, 5, 6], [3, 1, 5, 5]], [[5, 4, 7, 10], [3, 3, 6, 5], [3, 1, 5, 3]], [[5, 3, 2, 7], [3, 3, 2, 5], [2, 2, 2, 3]], [[4, 5, 5, 4], [3, 4, 4, 3], [3, 3, 4, 2]], [[3, 2, 7, 6], [2, 2, 4, 5], [2, 2, 3, 4]], [[5, 4, 4, 6], [4, 3, 4, 5], [3, 2, 4, 5]], [[3, 4, 8, 5], [3, 4, 8, 4], [3, 3, 8, 4]], [[2, 5, 6, 3], [1, 2, 5, 3], [1, 2, 4, 1]], [[2, 2, 8, 5], [1, 2, 7, 5], [1, 2, 5, 4]], [[3, 4, 7, 3], [1, 3, 4, 3], [1, 3, 2, 3]], [[4, 4, 6, 7], [3, 4, 6, 7], [3, 4, 5, 6]], [[3, 4, 6, 5], [3, 3, 6, 3], [3, 1, 2, 3]], [[4, 3, 9, 7], [4, 3, 7, 5], [4, 2, 4, 2]], [[3, 5, 4, 10], [2, 4, 4, 9], [2, 3, 4, 8]], [[4, 4, 10, 8], [4, 3, 4, 4], [3, 2, 2, 3]], [[3, 3, 10, 9], [2, 3, 9, 6], [2, 3, 8, 1]], [[5, 1, 4, 7], [4, 1, 2, 3], [3, 1, 2, 1]], [[5, 5, 7, 7], [5, 3, 5, 7], [5, 3, 4, 6]], [[3, 2, 6, 10], [3, 1, 5, 10], [3, 1, 5, 9]], [[3, 2, 2, 4], [3, 1, 1, 4], [3, 1, 1, 3]], [[3, 4, 8, 7], [2, 4, 8, 5], [2, 2, 5, 3]], [[5, 4, 8, 7], [4, 3, 6, 6], [4, 1, 5, 6]], [[2, 5, 7, 10], [1, 4, 5, 6], [1, 4, 5, 2]], [[3, 5, 9, 4], [3, 5, 5, 2], [3, 5, 4, 2]], [[1, 2, 10, 7], [1, 2, 5, 4], [1, 2, 4, 2]], [[4, 4, 5, 6], [3, 3, 4, 4], [3, 3, 3, 4]], [[4, 4, 4, 5], [4, 2, 2, 5], [4, 2, 2, 4]], [[1, 3, 7, 8], [1, 3, 6, 5], [1, 2, 6, 5]], [[4, 3, 5, 5], [3, 2, 3, 3], [2, 1, 1, 2]], [[1, 4, 5, 5], [1, 2, 5, 5], [1, 2, 4, 1]], [[2, 3, 5, 3], [1, 2, 5, 3], [1, 1, 4, 3]], [[4, 2, 4, 8], [3, 1, 3, 6], [1, 1, 2, 4]], [[3, 4, 7, 7], [2, 4, 3, 7], [1, 4, 2, 7]], [[4, 4, 7, 5], [4, 4, 6, 5], [4, 4, 4, 4]], [[5, 5, 5, 7], [5, 4, 4, 4], [5, 3, 3, 1]], [[5, 4, 5, 9], [5, 3, 5, 7], [5, 2, 5, 7]], [[4, 3, 9, 9], [3, 3, 6, 8], [3, 1, 4, 7]], [[4, 4, 1, 8], [3, 3, 1, 7], [1, 2, 1, 6]], [[5, 1, 9, 8], [3, 1, 8, 5], [2, 1, 8, 4]], [[3, 1, 10, 5], [3, 1, 9, 4], [2, 1, 9, 1]], [[4, 4, 8, 7], [4, 4, 5, 5], [3, 4, 3, 3]], [[3, 3, 5, 7], [2, 3, 5, 5], [2, 3, 5, 3]], [[2, 5, 6, 2], [2, 3, 5, 2], [1, 1, 5, 2]], [[5, 3, 5, 8], [5, 3, 4, 5], [5, 3, 3, 3]], [[5, 4, 7, 5], [5, 2, 4, 2], [5, 1, 4, 1]], [[4, 5, 4, 8], [2, 4, 4, 5], [1, 3, 4, 3]], [[4, 1, 5, 6], [4, 1, 2, 5], [3, 1, 1, 4]], [[4, 5, 7, 9], [3, 5, 6, 9], [2, 5, 5, 9]], [[5, 3, 9, 9], [4, 3, 8, 8], [3, 2, 8, 7]], [[1, 3, 8, 6], [1, 3, 8, 5], [1, 2, 8, 3]], [[1, 2, 9, 4], [1, 1, 5, 4], [1, 1, 3, 4]], [[4, 5, 6, 4], [3, 4, 5, 4], [3, 4, 4, 2]], [[3, 4, 6, 7], [3, 3, 5, 6], [2, 3, 4, 5]], [[3, 4, 10, 10], [1, 3, 9, 7], [1, 2, 9, 6]], [[4, 4, 7, 8], [2, 4, 5, 7], [2, 4, 3, 6]], [[4, 1, 3, 5], [3, 1, 3, 4], [2, 1, 1, 4]], [[5, 4, 6, 7], [5, 4, 5, 5], [5, 3, 3, 5]], [[4, 4, 3, 8], [4, 3, 1, 3], [4, 1, 1, 2]], [[4, 5, 7, 4], [2, 4, 7, 4], [2, 3, 7, 2]], [[3, 5, 6, 8], [3, 5, 4, 8], [2, 5, 2, 8]], [[2, 3, 8, 9], [2, 2, 8, 8], [2, 1, 8, 8]], [[2, 5, 7, 5], [1, 3, 4, 5], [1, 3, 3, 5]], [[3, 3, 8, 7], [1, 3, 4, 6], [1, 3, 4, 1]], [[3, 4, 5, 5], [2, 2, 3, 5], [2, 2, 3, 1]], [[4, 3, 7, 6], [4, 3, 6, 6], [4, 2, 3, 6]], [[4, 1, 5, 8], [3, 1, 4, 8], [3, 1, 4, 7]], [[3, 4, 9, 8], [3, 3, 7, 5], [3, 3, 7, 3]], [[5, 5, 3, 9], [5, 3, 2, 8], [5, 3, 2, 7]], [[2, 3, 1, 9], [2, 2, 1, 7], [2, 2, 1, 6]], [[4, 4, 10, 8], [4, 3, 9, 5], [3, 2, 9, 2]], [[4, 3, 8, 4], [4, 2, 6, 3], [4, 2, 6, 2]], [[4, 4, 7, 5], [4, 4, 5, 5], [4, 4, 3, 5]], [[2, 4, 5, 10], [2, 4, 5, 8], [2, 4, 1, 6]], [[5, 4, 7, 4], [5, 3, 7, 4], [5, 1, 7, 4]], [[3, 2, 7, 10], [3, 2, 7, 8], [2, 1, 7, 8]], [[3, 5, 8, 5], [1, 4, 7, 3], [1, 4, 2, 2]], [[4, 4, 7, 3], [3, 4, 4, 2], [3, 4, 2, 2]], [[5, 5, 6, 7], [4, 5, 4, 6], [2, 5, 2, 3]], [[4, 2, 8, 5], [2, 2, 7, 3], [1, 2, 6, 3]], [[4, 4, 3, 9], [3, 3, 3, 5], [3, 3, 2, 4]], [[3, 4, 2, 3], [2, 4, 1, 2], [2, 2, 1, 2]], [[5, 4, 2, 2], [5, 3, 2, 2], [5, 1, 2, 1]], [[0, 0, 0, 0]]]
